param set_len = 24;
param target_sum = 8711277957;
param values := [1] 524100555 [2] 500482668 [3] 950695991 [4] 1049918137 [5] 871827960 [6] 1064567909 [7] 108470211 [8] 36174050 [9] 416494495 [10] 16077359 [11] 550131009 [12] 669828579 [13] 525749609 [14] 876806432 [15] 475861874 [16] 528265100 [17] 713458135 [18] 724515157 [19] 100431389 [20] 227726977 [21] 495373149 [22] 276966856 [23] 75955294 [24] 998960833 ;
